33D32945 STP File, STP Format Version 1.0

SECTION Comment
Name    "cancer9_6D"
Creator "S. A. Chowdhury, A. A. Schaffer, R. Schwartz"
Problem "Rectilinear Steiner Minimum Tree"
Remark  "Derived from a problem in (prostate) cancer research"
END

SECTION Graph 
Nodes 46
END

SECTION Coordinates
DDDDDD 1 2 2 2 2 2 2 
DDDDDD 2 1 1 1 2 1 1 
DDDDDD 3 1 2 1 2 1 2 
DDDDDD 4 2 2 1 0 2 2 
DDDDDD 5 2 2 2 0 2 2 
DDDDDD 6 2 2 2 2 1 2 
DDDDDD 7 2 1 2 0 2 2 
DDDDDD 8 2 1 2 2 2 2 
DDDDDD 9 1 1 2 2 2 2 
DDDDDD 10 1 2 1 2 2 2 
DDDDDD 11 1 2 2 0 2 2 
DDDDDD 12 1 2 2 0 3 2 
DDDDDD 13 1 3 2 2 1 2 
DDDDDD 14 2 0 2 0 3 2 
DDDDDD 15 2 1 2 0 2 1 
DDDDDD 16 2 2 1 0 1 2 
DDDDDD 17 2 2 1 2 2 2 
DDDDDD 18 2 2 2 0 1 2 
DDDDDD 19 2 2 2 0 2 0 
DDDDDD 20 2 2 2 0 2 1 
DDDDDD 21 2 2 2 0 3 2 
DDDDDD 22 2 2 2 0 5 2 
DDDDDD 23 2 2 2 1 2 2 
DDDDDD 24 2 2 2 2 2 3 
DDDDDD 25 2 2 2 2 3 2 
DDDDDD 26 2 2 2 2 4 2 
DDDDDD 27 2 2 3 0 2 2 
DDDDDD 28 2 2 3 0 3 2 
DDDDDD 29 2 2 3 2 2 2 
DDDDDD 30 2 2 4 0 2 2 
DDDDDD 31 2 2 4 0 3 2 
DDDDDD 32 2 2 4 0 5 1 
DDDDDD 33 2 2 4 0 5 2 
DDDDDD 34 2 2 4 2 2 2 
DDDDDD 35 2 2 4 2 4 2 
DDDDDD 36 2 3 2 0 2 2 
DDDDDD 37 2 3 2 2 2 2 
DDDDDD 38 3 1 4 2 2 1 
DDDDDD 39 3 2 2 2 2 2 
DDDDDD 40 3 2 3 0 3 2 
DDDDDD 41 3 3 2 4 2 2 
DDDDDD 42 1 4 2 4 2 4 
DDDDDD 43 2 4 2 0 2 4 
DDDDDD 44 2 4 2 4 2 4 
DDDDDD 45 2 0 2 2 2 2 
DDDDDD 46 3 2 2 0 2 2 
END

EOF
